p edge 58 477
e 1 2
e 1 4
e 1 9
e 1 19
e 1 23
e 1 25
e 1 28
e 1 31
e 1 34
e 1 44
e 1 46
e 1 47
e 1 53
e 1 56
e 1 58
e 2 4
e 2 9
e 2 12
e 2 13
e 2 18
e 2 20
e 2 21
e 2 37
e 2 42
e 2 43
e 2 49
e 2 50
e 2 51
e 3 6
e 3 7
e 3 8
e 3 11
e 3 15
e 3 16
e 3 20
e 3 22
e 3 25
e 3 34
e 3 35
e 3 38
e 3 40
e 3 41
e 3 44
e 3 45
e 3 46
e 3 48
e 3 50
e 3 52
e 4 5
e 4 11
e 4 15
e 4 17
e 4 19
e 4 20
e 4 24
e 4 30
e 4 32
e 4 36
e 4 40
e 4 44
e 4 48
e 4 54
e 4 55
e 4 58
e 5 7
e 5 11
e 5 14
e 5 18
e 5 27
e 5 29
e 5 34
e 5 42
e 5 50
e 5 51
e 5 56
e 5 57
e 5 58
e 6 8
e 6 10
e 6 12
e 6 15
e 6 17
e 6 21
e 6 23
e 6 24
e 6 26
e 6 28
e 6 31
e 6 33
e 6 45
e 6 49
e 6 54
e 7 9
e 7 11
e 7 17
e 7 18
e 7 20
e 7 24
e 7 33
e 7 36
e 7 45
e 7 49
e 8 9
e 8 14
e 8 25
e 8 30
e 8 34
e 8 35
e 8 36
e 8 38
e 8 42
e 8 50
e 8 54
e 8 55
e 9 10
e 9 18
e 9 20
e 9 23
e 9 27
e 9 33
e 9 34
e 9 37
e 9 38
e 9 46
e 9 48
e 9 50
e 9 51
e 9 53
e 9 54
e 9 56
e 9 57
e 9 58
e 10 11
e 10 26
e 10 29
e 10 30
e 10 34
e 10 36
e 10 37
e 10 49
e 10 50
e 10 51
e 10 54
e 10 57
e 11 13
e 11 15
e 11 16
e 11 20
e 11 23
e 11 24
e 11 28
e 11 31
e 11 35
e 11 43
e 11 45
e 11 46
e 11 53
e 11 55
e 11 58
e 12 14
e 12 19
e 12 21
e 12 25
e 12 28
e 12 31
e 12 34
e 12 37
e 12 41
e 12 48
e 12 54
e 12 58
e 13 16
e 13 18
e 13 19
e 13 20
e 13 24
e 13 28
e 13 31
e 13 33
e 13 37
e 13 40
e 13 44
e 13 49
e 13 50
e 13 52
e 13 57
e 14 17
e 14 19
e 14 22
e 14 24
e 14 36
e 14 37
e 14 39
e 14 42
e 14 45
e 14 48
e 14 49
e 14 52
e 14 54
e 15 17
e 15 21
e 15 22
e 15 24
e 15 25
e 15 29
e 15 30
e 15 31
e 15 33
e 15 35
e 15 42
e 15 46
e 15 54
e 16 19
e 16 26
e 16 27
e 16 33
e 16 34
e 16 37
e 16 39
e 16 41
e 16 43
e 16 58
e 17 29
e 17 32
e 17 33
e 17 47
e 17 48
e 17 50
e 17 56
e 18 21
e 18 22
e 18 23
e 18 24
e 18 32
e 18 38
e 18 43
e 18 44
e 18 45
e 19 22
e 19 27
e 19 31
e 19 33
e 19 37
e 19 38
e 19 39
e 19 40
e 19 42
e 19 48
e 19 51
e 19 52
e 19 54
e 20 22
e 20 24
e 20 27
e 20 28
e 20 32
e 20 35
e 20 38
e 20 49
e 20 54
e 20 58
e 21 23
e 21 24
e 21 28
e 21 30
e 21 31
e 21 32
e 21 36
e 21 37
e 21 38
e 21 39
e 21 41
e 21 52
e 22 23
e 22 26
e 22 27
e 22 28
e 22 35
e 22 36
e 22 39
e 22 46
e 22 57
e 23 28
e 23 34
e 23 36
e 23 37
e 23 39
e 23 41
e 23 43
e 23 45
e 23 46
e 23 47
e 23 49
e 23 50
e 23 53
e 23 54
e 23 56
e 23 57
e 23 58
e 24 26
e 24 29
e 24 37
e 24 38
e 24 39
e 24 42
e 24 43
e 24 54
e 24 58
e 25 28
e 25 30
e 25 31
e 25 36
e 25 37
e 25 41
e 25 42
e 25 44
e 25 46
e 25 52
e 25 56
e 25 58
e 26 28
e 26 30
e 26 35
e 26 36
e 26 37
e 26 39
e 26 44
e 26 48
e 26 51
e 26 55
e 27 31
e 27 32
e 27 33
e 27 35
e 27 43
e 27 44
e 27 47
e 27 50
e 27 51
e 27 56
e 27 58
e 28 39
e 28 41
e 28 42
e 28 46
e 28 53
e 28 56
e 29 30
e 29 31
e 29 32
e 29 36
e 29 57
e 30 36
e 30 37
e 30 38
e 30 47
e 30 49
e 30 51
e 30 53
e 31 33
e 31 40
e 31 55
e 31 57
e 32 33
e 32 37
e 32 38
e 32 39
e 32 40
e 32 42
e 32 47
e 32 50
e 32 52
e 32 53
e 32 55
e 32 56
e 32 58
e 33 37
e 33 38
e 33 40
e 33 41
e 33 43
e 33 51
e 33 54
e 33 56
e 33 58
e 34 36
e 34 38
e 34 47
e 34 49
e 34 51
e 34 53
e 34 57
e 34 58
e 35 37
e 35 38
e 35 46
e 35 52
e 35 55
e 36 38
e 36 41
e 36 44
e 36 47
e 36 50
e 36 53
e 36 57
e 37 44
e 37 45
e 37 46
e 37 47
e 37 53
e 37 55
e 37 56
e 38 39
e 38 40
e 38 42
e 38 49
e 38 55
e 38 58
e 39 40
e 39 42
e 39 47
e 39 48
e 39 51
e 39 57
e 40 41
e 40 44
e 40 45
e 40 48
e 40 55
e 40 56
e 41 55
e 42 43
e 42 49
e 42 50
e 42 54
e 42 58
e 43 47
e 43 53
e 43 54
e 43 55
e 43 56
e 44 46
e 44 50
e 44 55
e 45 49
e 45 53
e 45 55
e 45 56
e 46 48
e 46 50
e 46 51
e 46 53
e 46 54
e 46 55
e 46 56
e 46 57
e 47 54
e 47 55
e 48 50
e 48 52
e 48 53
e 48 56
e 49 54
e 49 57
e 50 52
e 50 53
e 50 57
e 51 54
e 51 55
e 52 54
e 53 57
e 54 55
e 54 57
e 55 56
e 55 57
e 55 58
e 56 57
